 Run started: Wed, 04 Nov 2020 19:28:22 +0000

 ******************************* User Parameters *******************************
iprint              : 3         # verbosity control (I)
writebib            : F         # output BibTeX references (L)
writeotfg           : F         # output OTFG files (L)
writecstesp         : F         # output cst_esp file (L)
spin                : 5.0000000 # net spin (R)
spinpolarised       : T         # spin polarised (L)
%block develcode    :           # developers code (B)
iprintu=8,
%endblock develcode :           # developers code (B)

 Atomic calculation performed for O: 1s2 2s2 2p4

 Converged in 60 iterations to an ae energy of -2027.926 eV

 Atomic calculation performed for Mn: 1s2 2s2 2p6 3s2 3p6 3d5 4s2

 Converged in 96 iterations to an ae energy of -31460.102 eV

 Pseudo atomic calculation performed for O 2s2 2p4

 Converged in 24 iterations to a total energy of -431.0932 eV

 Pseudo atomic calculation performed for Mn 3s2 3p6 3d5 4s2

 Converged in 38 iterations to a total energy of -2902.3718 eV
Initialising basis set.

Standard grid dimensions:  48  36  36
Fine grid dimensions:      48  36  36

 ************************************ Title ************************************

 ***************************** General Parameters ******************************

 output verbosity                               : extreme (3)
 write checkpoint data to                       : MnO.check
 type of calculation                            : single point energy
 stress calculation                             : off
 density difference calculation                 : off
 electron localisation func (ELF) calculation   : off
 Hirshfeld analysis                             : off
 unlimited duration calculation
 timing information                             : on
 write extra output files                       : on
 write final potential to formatted file        : off
 write final density to formatted file          : off
 write BibTeX reference list                    : off
 write OTFG pseudopotential files               : off
 write electrostatic potential file             : off
 write bands file                               : on
 checkpoint writing                             : both castep_bin and check files

 output         length unit                     : A
 output           mass unit                     : amu
 output           time unit                     : ps
 output         charge unit                     : e
 output           spin unit                     : hbar/2
 output         energy unit                     : eV
 output          force unit                     : eV/A
 output       velocity unit                     : A/ps
 output       pressure unit                     : GPa
 output     inv_length unit                     : 1/A
 output      frequency unit                     : cm-1
 output force constant unit                     : eV/A**2
 output         volume unit                     : A**3
 output   IR intensity unit                     : (D/A)**2/amu
 output         dipole unit                     : D
 output         efield unit                     : eV/A/e
 output        entropy unit                     : J/mol/K

 wavefunctions paging                           : none
 random number generator seed                   : randomised (192822383)
 data distribution                              : optimal for this architecture

 *********************** Exchange-Correlation Parameters ***********************

 using functional                               : Local Density Approximation
 relativistic treatment                         : Koelling-Harmon
 DFT+D: Semi-empirical dispersion correction    : off

 ************************* Pseudopotential Parameters **************************

 pseudopotential representation                 : reciprocal space
 <beta|phi> representation                      : reciprocal space
 spin-orbit coupling                            : off

 **************************** Basis Set Parameters *****************************

 basis set accuracy                             : FINE
 plane wave basis set cut-off                   :   625.8619   eV
 size of standard grid                          :     1.7500
 size of   fine   gmax                          :    22.4293   1/A
 largest prime factor in FFT                    :          5
 finite basis set correction                    : none

 **************************** Electronic Parameters ****************************

 number of  electrons                           :  21.00
 net charge of system                           :  0.000
 net spin   of system                           :  5.000
 number of  up  spins                           :  13.00
 number of down spins                           :  8.000
 treating system as spin-polarized
 number of bands                                :         17

 ********************* Electronic Minimization Parameters **********************

 Method: Treating system as metallic with density mixing treatment of electrons,
         and number of  SD  steps               :          1
         and number of  CG  steps               :          4

 total energy / atom convergence tol.           : 0.1000E-04   eV
 eigen-energy convergence tolerance             : 0.1000E-05   eV
 max force / atom convergence tol.              : ignored
 convergence tolerance window                   :          3   cycles
 max. number of SCF cycles                      :         30
 number of fixed-spin iterations                :         10
 smearing scheme                                : Gaussian
 smearing width                                 : 0.2000       eV
 Fermi energy convergence tolerance             : 0.2721E-13   eV
 periodic dipole correction                     : NONE

 ************************** Density Mixing Parameters **************************

 density-mixing scheme                          : Broyden
 max. length of mixing history                  :         20
 charge density mixing amplitude                : 0.8000
   spin density mixing amplitude                :  2.000
 charge density mixing g-vector                 :  1.500       1/A
   spin density mixing g-vector                 :  1.500       1/A

 *********************** Population Analysis Parameters ************************

 Population analysis with cutoff                :  3.000       A
 Population analysis output                     : summary and pdos components

 ******************************* Developer Code ********************************

 iprintu=8,

                                      Unit Cell
        Real Lattice(A)                      Reciprocal Lattice(1/A)
     6.6000000     0.0000000     0.0000000        0.951997774   0.000000000   0.000000000
     0.0000000     5.0000000     0.0000000        0.000000000   1.256637061   0.000000000
     0.0000000     0.0000000     5.0000000        0.000000000   0.000000000   1.256637061

                       Lattice parameters(A)       Cell Angles
                    a =      6.600000          alpha =   90.000000
                    b =      5.000000          beta  =   90.000000
                    c =      5.000000          gamma =   90.000000

                       Current cell volume =           165.000000       A**3
                                   density =             0.429924   AMU/A**3
                                           =             0.713905     g/cm^3

                                     Cell Contents
                         Total number of ions in cell =    2
                      Total number of species in cell =    2
                        Max number of any one species =    1

            x  Element    Atom        Fractional coordinates of atoms  x
            x            Number           u          v          w      x
            x  O            1         0.621212   0.500000   0.500000   x
            x  Mn           1         0.378788   0.500000   0.500000   x

                         No user defined ionic velocities

                                   Details of Species

                               Mass of species in AMU
                                    O   15.9994000
                                    Mn   54.9380500

                          Electric Quadrupole Moment (Barn)
                                    O   -0.0255800 Isotope 17
                                    Mn    0.3300000 Isotope 55

         Quantisation axis:    0.00000   0.00000   1.00000

         Units for Hubbard U values are eV
         |  Element     Atom     Hubbard U   values by orbital type         |
         |             Number      s          p          d          f       |
         |O             1         0.00000    0.00000    0.00000    0.00000  |
         |Mn            1         0.00000    0.00000    0.00000    0.00000  |

                          Files used for pseudopotentials:
                                    O 2|1.1|17|20|23|20:21(qc=8)
                                    Mn 3|1.8|1.8|0.6|12|14|16|30U:40:31:32(qc=7)

                              k-Points For BZ Sampling
                       MP grid size for SCF calculation is  2  3  3
                            with an offset of   0.000  0.000  0.000
                       Number of kpoints used =             9

             +  Number       Fractional coordinates        Weight  +
             +     1  -0.250000  -0.333333  -0.333333   0.1111111  +
             +     2  -0.250000  -0.333333   0.333333   0.1111111  +
             +     3  -0.250000   0.000000  -0.333333   0.1111111  +
             +     4  -0.250000   0.000000   0.000000   0.1111111  +
             +     5  -0.250000   0.000000   0.333333   0.1111111  +
             +     6  -0.250000   0.333333   0.000000   0.1111111  +
             +     7  -0.250000   0.333333   0.333333   0.1111111  +
             +     8   0.250000  -0.333333   0.333333   0.1111111  +
             +     9   0.250000   0.333333   0.000000   0.1111111  +

                               Symmetry and Constraints

                      Maximum deviation from symmetry =  0.00000         ANG

                      Number of symmetry operations   =           1
                      Number of ionic constraints     =           3
                      Point group of crystal =     1: C1, 1, 1
                      Space group of crystal =    99: P4mm, P 4 -2

                    1 rotation
                 (   1.00000000000   0.00000000000   0.00000000000 )
                 (   0.00000000000   1.00000000000   0.00000000000 )
                 (   0.00000000000   0.00000000000   1.00000000000 )
                    1 displacement
                 (   0.00000000000   0.00000000000   0.00000000000 )
                      symmetry related atoms:
             O:    1
             Mn:    1

                         Centre of mass is constrained

            x  Species       atom   co-ordinate  constraints.....
            x O                 1       x        29165.1220      0.0000      0.0000
            x O                 1       y            0.0000  29165.1220      0.0000
[...]
|    10  |   -.566245E+01    |   1.00000      |                   <- occ
|    11  |   -.449069E+01    |   1.00000      |                   <- occ
|    12  |   -.366941E+01    |  0.999952      |                   <- occ
|    13  |   -.352047E+01    |  0.997778      |                   <- occ
|    14  |   -.197235E+01    |  0.277556E-15  |                   <- occ
|    15  |   -.647259E-01    |   0.00000      |                   <- occ
+--------+-------------------+----------------+                   <- occ
Spin 1, kpoint ( 0.250000 -0.333333  0.333333 ) weight = 0.111111
|  Band  |   Eigenvalue      |    Occupancy   |                   <- occ
+--------+-------------------+----------------+                   <- occ
|     8  |   -.722792E+01    |   1.00000      |                   <- occ
|     9  |   -.584930E+01    |   1.00000      |                   <- occ
|    10  |   -.568139E+01    |   1.00000      |                   <- occ
|    11  |   -.423722E+01    |   1.00000      |                   <- occ
|    12  |   -.364976E+01    |  0.999915      |                   <- occ
|    13  |   -.362198E+01    |  0.999816      |                   <- occ
|    14  |   -.178178E+01    |   0.00000      |                   <- occ
|    15  |   0.301203E+00    |   0.00000      |                   <- occ
+--------+-------------------+----------------+                   <- occ
Spin 2, kpoint (-0.250000 -0.333333 -0.333333 ) weight = 0.111111
|  Band  |   Eigenvalue      |    Occupancy   |                   <- occ
+--------+-------------------+----------------+                   <- occ
|     8  |   -.585163E+01    |   1.00000      |                   <- occ
|     9  |   -.215301E+01    |  0.440870E-11  |                   <- occ
|    10  |   -.204034E+01    |  0.125455E-13  |                   <- occ
|    11  |   -.194851E+01    |   0.00000      |                   <- occ
|    12  |   -.114267E+01    |   0.00000      |                   <- occ
|    13  |   -.111438E+01    |   0.00000      |                   <- occ
|    14  |   -.217678E+00    |   0.00000      |                   <- occ
|    15  |   0.161473E+01    |   0.00000      |                   <- occ
+--------+-------------------+----------------+                   <- occ
Spin 2, kpoint (-0.250000  0.000000 -0.333333 ) weight = 0.111111
|  Band  |   Eigenvalue      |    Occupancy   |                   <- occ
+--------+-------------------+----------------+                   <- occ
|     8  |   -.579654E+01    |   1.00000      |                   <- occ
|     9  |   -.243271E+01    |  0.627275E-06  |                   <- occ
|    10  |   -.213937E+01    |  0.224182E-11  |                   <- occ
|    11  |   -.197089E+01    |  0.222045E-15  |                   <- occ
|    12  |   -.118392E+01    |   0.00000      |                   <- occ
|    13  |   -.995012E+00    |   0.00000      |                   <- occ
|    14  |   -.413884E+00    |   0.00000      |                   <- occ
|    15  |   0.122287E+01    |   0.00000      |                   <- occ
+--------+-------------------+----------------+                   <- occ
Spin 2, kpoint (-0.250000  0.000000  0.333333 ) weight = 0.111111
|  Band  |   Eigenvalue      |    Occupancy   |                   <- occ
+--------+-------------------+----------------+                   <- occ
|     8  |   -.579654E+01    |   1.00000      |                   <- occ
|     9  |   -.243271E+01    |  0.627274E-06  |                   <- occ
|    10  |   -.213937E+01    |  0.224182E-11  |                   <- occ
|    11  |   -.197089E+01    |  0.222045E-15  |                   <- occ
|    12  |   -.118392E+01    |   0.00000      |                   <- occ
|    13  |   -.995012E+00    |   0.00000      |                   <- occ
|    14  |   -.413884E+00    |   0.00000      |                   <- occ
|    15  |   0.122287E+01    |   0.00000      |                   <- occ
+--------+-------------------+----------------+                   <- occ
Spin 2, kpoint (-0.250000  0.333333  0.333333 ) weight = 0.111111
|  Band  |   Eigenvalue      |    Occupancy   |                   <- occ
+--------+-------------------+----------------+                   <- occ
|     8  |   -.585163E+01    |   1.00000      |                   <- occ
|     9  |   -.215301E+01    |  0.440870E-11  |                   <- occ
|    10  |   -.204034E+01    |  0.125455E-13  |                   <- occ
|    11  |   -.194851E+01    |   0.00000      |                   <- occ
|    12  |   -.114267E+01    |   0.00000      |                   <- occ
|    13  |   -.111438E+01    |   0.00000      |                   <- occ
|    14  |   -.217678E+00    |   0.00000      |                   <- occ
|    15  |   0.161473E+01    |   0.00000      |                   <- occ
+--------+-------------------+----------------+                   <- occ
Spin 2, kpoint ( 0.250000  0.333333  0.000000 ) weight = 0.111111
|  Band  |   Eigenvalue      |    Occupancy   |                   <- occ
+--------+-------------------+----------------+                   <- occ
|     8  |   -.579654E+01    |   1.00000      |                   <- occ
|     9  |   -.243271E+01    |  0.627238E-06  |                   <- occ
|    10  |   -.213938E+01    |  0.224198E-11  |                   <- occ
|    11  |   -.197089E+01    |  0.222045E-15  |                   <- occ
|    12  |   -.118392E+01    |   0.00000      |                   <- occ
|    13  |   -.995012E+00    |   0.00000      |                   <- occ
|    14  |   -.413884E+00    |   0.00000      |                   <- occ
|    15  |   0.122287E+01    |   0.00000      |                   <- occ
+--------+-------------------+----------------+                   <- occ
Spin 2, kpoint (-0.250000 -0.333333  0.333333 ) weight = 0.111111
|  Band  |   Eigenvalue      |    Occupancy   |                   <- occ
+--------+-------------------+----------------+                   <- occ
|     8  |   -.585163E+01    |   1.00000      |                   <- occ
|     9  |   -.215301E+01    |  0.440870E-11  |                   <- occ
|    10  |   -.204034E+01    |  0.125455E-13  |                   <- occ
|    11  |   -.194851E+01    |   0.00000      |                   <- occ
|    12  |   -.114267E+01    |   0.00000      |                   <- occ
|    13  |   -.111438E+01    |   0.00000      |                   <- occ
|    14  |   -.217678E+00    |   0.00000      |                   <- occ
|    15  |   0.161472E+01    |   0.00000      |                   <- occ
+--------+-------------------+----------------+                   <- occ
Spin 2, kpoint (-0.250000  0.000000  0.000000 ) weight = 0.111111
|  Band  |   Eigenvalue      |    Occupancy   |                   <- occ
+--------+-------------------+----------------+                   <- occ
|     8  |   -.580075E+01    |   1.00000      |                   <- occ
|     9  |   -.280573E+01    |  0.135803E-01  |                   <- occ
|    10  |   -.226489E+01    |  0.802314E-09  |                   <- occ
|    11  |   -.194060E+01    |   0.00000      |                   <- occ
|    12  |   -.100845E+01    |   0.00000      |                   <- occ
|    13  |   -.100845E+01    |   0.00000      |                   <- occ
|    14  |   -.617302E+00    |   0.00000      |                   <- occ
|    15  |   0.190941E+01    |   0.00000      |                   <- occ
+--------+-------------------+----------------+                   <- occ
Spin 2, kpoint (-0.250000  0.333333  0.000000 ) weight = 0.111111
|  Band  |   Eigenvalue      |    Occupancy   |                   <- occ
+--------+-------------------+----------------+                   <- occ
|     8  |   -.579654E+01    |   1.00000      |                   <- occ
|     9  |   -.243271E+01    |  0.627239E-06  |                   <- occ
|    10  |   -.213938E+01    |  0.224198E-11  |                   <- occ
|    11  |   -.197089E+01    |  0.222045E-15  |                   <- occ
|    12  |   -.118392E+01    |   0.00000      |                   <- occ
|    13  |   -.995012E+00    |   0.00000      |                   <- occ
|    14  |   -.413884E+00    |   0.00000      |                   <- occ
|    15  |   0.122287E+01    |   0.00000      |                   <- occ
+--------+-------------------+----------------+                   <- occ
Spin 2, kpoint ( 0.250000 -0.333333  0.333333 ) weight = 0.111111
|  Band  |   Eigenvalue      |    Occupancy   |                   <- occ
+--------+-------------------+----------------+                   <- occ
|     8  |   -.585163E+01    |   1.00000      |                   <- occ
|     9  |   -.215301E+01    |  0.440870E-11  |                   <- occ
|    10  |   -.204034E+01    |  0.125455E-13  |                   <- occ
|    11  |   -.194851E+01    |   0.00000      |                   <- occ
|    12  |   -.114267E+01    |   0.00000      |                   <- occ
|    13  |   -.111438E+01    |   0.00000      |                   <- occ
|    14  |   -.217678E+00    |   0.00000      |                   <- occ
|    15  |   0.161472E+01    |   0.00000      |                   <- occ
+--------+-------------------+----------------+                   <- occ
  achieved Hubbard U energy convergence:   1.3525529376884530E-013
Have a nice day.

Writing analysis data to MnO.castep_bin

Writing model to MnO.check
                            Ewald force:
Species #   1 Atom #   1 Fx: 483.919     Fy:0.185030E-13 Fz:0.185420E-13 eV/A
Species #   2 Atom #   1 Fx:-483.919     Fy:-.184017E-13 Fz:-.185483E-13 eV/A

[...]

 Converged in 38 iterations to a total energy of -2902.3718 eV
  Accepting available Hubbard U occ matrix:

     Hubbard U occupation numbers
Species   Ion   l  spin               occupancies
  Mn       1    2   up:   0.78  0.98  0.98  1.00  1.00
                    dn:   0.00  0.00  0.32  0.32  0.35

 Density matrix in cubic harmonics:
     0.9446     0.0000     0.0000     0.0955    -0.0000
     0.0000     0.0000     0.0000     0.0000     0.0000
     0.0000     0.9997    -0.0000    -0.0000    -0.0000
     0.0000     0.0000     0.0000     0.0000     0.0000
     0.0000    -0.0000     0.9789    -0.0000     0.0000
     0.0000     0.0000     0.0000     0.0000     0.0000
     0.0955    -0.0000    -0.0000     0.8343     0.0000
     0.0000     0.0000     0.0000     0.0000     0.0000
    -0.0000    -0.0000     0.0000     0.0000     0.9789
     0.0000     0.0000     0.0000     0.0000     0.0000
 Hermiticity:              (0.21399088545086109,0.0000000000000000)
 Density matrix in cubic harmonics:
     0.0867     0.0000     0.0000    -0.1500     0.0000
     0.0000     0.0000     0.0000     0.0000     0.0000
     0.0000     0.0000    -0.0000    -0.0000     0.0000
     0.0000     0.0000     0.0000     0.0000     0.0000
     0.0000    -0.0000     0.3185    -0.0000     0.0000
     0.0000     0.0000     0.0000     0.0000     0.0000
    -0.1500    -0.0000    -0.0000     0.2599     0.0000
     0.0000     0.0000     0.0000     0.0000     0.0000
     0.0000     0.0000     0.0000     0.0000     0.3185
     0.0000     0.0000     0.0000     0.0000     0.0000
 Hermiticity:              (0.66063931402031995,0.0000000000000000)
Hubbard U energy: Ha   =    0.000000000161
Hubbard U forces Ha/A    1     7.747877115931    4.724315314592    4.724315314592    0.000000000001    0.000000000000    0.000000000000
Hubbard U forces Ha/A    2     4.724315314592    4.724315314592    4.724315314592   -0.000000000043    0.000000000000    0.000000000000
  achieved Hubbard U energy convergence:   7.3498644949913272E-007

 *********************** Ewald forces ***********************
 *               Cartesian components (eV/A)                *
 *                         x            y            z      *
 * O               1    483.91934      0.00000      0.00000 *
 * Mn              1   -483.91934     -0.00000     -0.00000 *

 ****************** Local potential forces ******************
 *               Cartesian components (eV/A)                *
 *                         x            y            z      *
 * O               1   -453.54841      0.00000      0.00000 *
 * Mn              1    496.21700     -0.00000     -0.00000 *

 **************** Non-local potential forces ****************
 *               Cartesian components (eV/A)                *
 *                         x            y            z      *
 * O               1    -30.21492      0.00000     -0.00000 *
 * Mn              1    -13.34173      0.00000      0.00000 *

 ************** External Efield and/or dipole ***************
 *               Cartesian components (eV/A)                *
 *                         x            y            z      *
 * O               1      0.00000      0.00000      0.00000 *
 * Mn              1      0.00000      0.00000      0.00000 *

 ***************** DM correction to forces ******************
 *               Cartesian components (eV/A)                *
 *                         x            y            z      *
 * O               1      0.00000      0.00000      0.00000 *
 * Mn              1      0.00000      0.00000      0.00000 *

 ***************** Hubbard potential forces *****************
 *               Cartesian components (eV/A)                *
 *                         x            y            z      *
 * O               1      0.00000      0.00000      0.00000 *
 * Mn              1     -0.00000      0.00000      0.00000 *

 ************************** Forces **************************
 *               Cartesian components (eV/A)                *
 *                         x            y            z      *
 * O               1      0.60004      0.00000     -0.00000 *
 * Mn              1     -0.60004     -0.00000      0.00000 *

 Pseudo atomic calculation performed for O 2s2 2p4

 Converged in 24 iterations to a total energy of -431.0932 eV

 Pseudo atomic calculation performed for Mn 3s2 3p6 3d5 4s2

 Converged in 38 iterations to a total energy of -2902.3718 eV
Charge spilling parameter for spin component 1 = 0.18%
Charge spilling parameter for spin component 2 = 0.16%

                   Orbital Populations
     Ion    Atom   Orbital              Up        Down      Spin
      O     1      S                    0.963     0.959     0.004
      O     1      Px                   0.669     0.738    -0.069
      O     1      Py                   0.900     0.728     0.173
      O     1      Pz                   0.900     0.728     0.173
     Mn     1      S                    0.999     1.000    -0.001
     Mn     1      Px                   0.998     0.998     0.000
     Mn     1      Py                   1.000     1.000     0.000
     Mn     1      Pz                   1.000     1.000     0.000
     Mn     1      Dzz                  0.927     0.066     0.861
     Mn     1      Dzy                  1.000     0.000     1.000
     Mn     1      Dzx                  0.971     0.251     0.720
     Mn     1      Dxx-yy               0.782     0.198     0.584
     Mn     1      Dxy                  0.971     0.251     0.720
     Mn     1      S                    0.614     0.021     0.593
     Mn     1      Px                   0.039     0.022     0.017
     Mn     1      Py                   0.132     0.022     0.110
     Mn     1      Pz                   0.132     0.022     0.110
                           Total:      12.998     8.002     4.997
The total projected populations are: spin up   12.998   0.000, spin down    8.002  -0.000, total   21.000   0.000

     Atomic Populations (Mulliken)
Species          Ion Spin      s      p      d      f     Total  Charge(e)   Spin(hbar/2)
  O               1   up:     0.96   2.47   0.00   0.00   3.43    -0.59        0.28
                  1   dn:     0.96   2.19   0.00   0.00   3.15
  Mn              1   up:     1.61   3.30   4.65   0.00   9.57     0.59        4.72
                  1   dn:     1.02   3.06   0.77   0.00   4.85

                 Bond                   Population        Spin       Length (A)
               O 1 -- Mn 1                   0.64        -0.04          1.60000

Writing analysis data to MnO.castep_bin

Writing model to MnO.check
Initialisation time =      6.62 s
Calculation time    =     32.60 s
Finalisation time   =      0.13 s
Total time          =     39.36 s

Overall parallel efficiency rating: Excellent (90%)

Data was distributed by:-
k-point (2-way); efficiency rating: Excellent (91%)

Parallel notes:
1) Calculation only took 39.2 s, so efficiency estimates may be inaccurate.
2) k-points were not fully distributed, there were 5 k-points per process.

Efficiencies are estimated from the ratio of communication time to total time,
and do not include all the effects of serial operations or load imbalance.